15
1 0 1
2 0 39
2 1 19
3 0 1
3 1 25
3 2 27
4 0 26
4 1 45
4 2 4
4 3 17
5 0 7
5 1 11
5 2 47
5 3 30
5 4 29
6 0 7
6 1 42
6 2 25
6 3 19
6 4 42
6 5 37
7 0 1
7 1 22
7 2 39
7 3 14
7 4 5
7 5 40
7 6 3
8 0 7
8 1 23
8 2 40
8 3 25
8 4 18
8 5 13
8 6 16
8 7 45
9 0 10
9 1 34
9 2 2
9 3 22
9 4 2
9 5 5
9 6 14
9 7 7
9 8 19
10 0 18
10 1 33
10 2 4
10 3 50
10 4 18
10 5 33
10 6 29
10 7 45
10 8 3
10 9 50
11 0 31
11 1 16
11 2 19
11 3 3
11 4 14
11 5 15
11 6 40
11 7 2
11 8 37
11 9 26
11 10 36
12 0 35
12 1 20
12 2 44
12 3 28
12 4 21
12 5 50
12 6 45
12 7 20
12 8 12
12 9 42
12 10 14
12 11 31
13 0 17
13 1 22
13 2 11
13 3 38
13 4 27
13 5 17
13 6 43
13 7 35
13 8 6
13 9 42
13 10 17
13 11 34
13 12 11
14 0 33
14 1 25
14 2 45
14 3 12
14 4 15
14 5 30
14 6 37
14 7 13
14 8 6
14 9 49
14 10 33
14 11 10
14 12 25
14 13 1
